Minimize
x16 + x18 + x20 + x22 + x28 + x30 + x32 + x34 + x40 + x42 + x44 + x46 + x52 + x54 + x56 + x58 + x64 + x66 + x68 + x70 + x76 + x78 + x80 + x82 + 
Subject To
\BRANCH
x0 + x16 + x17 - 2 d0 >= 0
d0 - x0 >= 0
d0 - x16 >= 0
d0 - x17 >= 0
\BRANCH
x1 + x18 + x19 - 2 d1 >= 0
d1 - x1 >= 0
d1 - x18 >= 0
d1 - x19 >= 0
\BRANCH
x2 + x20 + x21 - 2 d2 >= 0
d2 - x2 >= 0
d2 - x20 >= 0
d2 - x21 >= 0
\BRANCH
x3 + x22 + x23 - 2 d3 >= 0
d3 - x3 >= 0
d3 - x22 >= 0
d3 - x23 >= 0
\Clefia S0
\M_0
x16 + x18 + x20 + x22 + x24 + x25 + x26 + x27 - 5 d4 >= 0
d4 - x16 >= 0
d4 - x18 >= 0
d4 - x20 >= 0
d4 - x22 >= 0
d4 - x24 >= 0
d4 - x25 >= 0
d4 - x26 >= 0
d4 - x27 >= 0
\XOR
x4 - x24 = 0
\XOR
x5 - x25 = 0
\XOR
x6 - x26 = 0
\XOR
x7 - x27 = 0
\BRANCH
x8 + x28 + x29 - 2 d5 >= 0
d5 - x8 >= 0
d5 - x28 >= 0
d5 - x29 >= 0
\BRANCH
x9 + x30 + x31 - 2 d6 >= 0
d6 - x9 >= 0
d6 - x30 >= 0
d6 - x31 >= 0
\BRANCH
x10 + x32 + x33 - 2 d7 >= 0
d7 - x10 >= 0
d7 - x32 >= 0
d7 - x33 >= 0
\BRANCH
x11 + x34 + x35 - 2 d8 >= 0
d8 - x11 >= 0
d8 - x34 >= 0
d8 - x35 >= 0
\Clefia S1
\M_1
x28 + x30 + x32 + x34 + x36 + x37 + x38 + x39 - 5 d9 >= 0
d9 - x28 >= 0
d9 - x30 >= 0
d9 - x32 >= 0
d9 - x34 >= 0
d9 - x36 >= 0
d9 - x37 >= 0
d9 - x38 >= 0
d9 - x39 >= 0
\XOR
x12 - x36 = 0
\XOR
x13 - x37 = 0
\XOR
x14 - x38 = 0
\XOR
x15 - x39 = 0
\Identity
\Identity
\Identity
\Identity
\Identity
\Identity
\Identity
\Identity
\Identity
\Identity
\Identity
\Identity
\Identity
\Identity
\Identity
\Identity
\BRANCH
x4 + x40 + x41 - 2 d10 >= 0
d10 - x4 >= 0
d10 - x40 >= 0
d10 - x41 >= 0
\BRANCH
x5 + x42 + x43 - 2 d11 >= 0
d11 - x5 >= 0
d11 - x42 >= 0
d11 - x43 >= 0
\BRANCH
x6 + x44 + x45 - 2 d12 >= 0
d12 - x6 >= 0
d12 - x44 >= 0
d12 - x45 >= 0
\BRANCH
x7 + x46 + x47 - 2 d13 >= 0
d13 - x7 >= 0
d13 - x46 >= 0
d13 - x47 >= 0
\Clefia S0
\M_0
x40 + x42 + x44 + x46 + x48 + x49 + x50 + x51 - 5 d14 >= 0
d14 - x40 >= 0
d14 - x42 >= 0
d14 - x44 >= 0
d14 - x46 >= 0
d14 - x48 >= 0
d14 - x49 >= 0
d14 - x50 >= 0
d14 - x51 >= 0
\XOR
x29 - x48 = 0
\XOR
x31 - x49 = 0
\XOR
x33 - x50 = 0
\XOR
x35 - x51 = 0
\BRANCH
x12 + x52 + x53 - 2 d15 >= 0
d15 - x12 >= 0
d15 - x52 >= 0
d15 - x53 >= 0
\BRANCH
x13 + x54 + x55 - 2 d16 >= 0
d16 - x13 >= 0
d16 - x54 >= 0
d16 - x55 >= 0
\BRANCH
x14 + x56 + x57 - 2 d17 >= 0
d17 - x14 >= 0
d17 - x56 >= 0
d17 - x57 >= 0
\BRANCH
x15 + x58 + x59 - 2 d18 >= 0
d18 - x15 >= 0
d18 - x58 >= 0
d18 - x59 >= 0
\Clefia S1
\M_1
x52 + x54 + x56 + x58 + x60 + x61 + x62 + x63 - 5 d19 >= 0
d19 - x52 >= 0
d19 - x54 >= 0
d19 - x56 >= 0
d19 - x58 >= 0
d19 - x60 >= 0
d19 - x61 >= 0
d19 - x62 >= 0
d19 - x63 >= 0
\XOR
x17 - x60 = 0
\XOR
x19 - x61 = 0
\XOR
x21 - x62 = 0
\XOR
x23 - x63 = 0
\Identity
\Identity
\Identity
\Identity
\Identity
\Identity
\Identity
\Identity
\Identity
\Identity
\Identity
\Identity
\Identity
\Identity
\Identity
\Identity
\BRANCH
x29 + x64 + x65 - 2 d20 >= 0
d20 - x29 >= 0
d20 - x64 >= 0
d20 - x65 >= 0
\BRANCH
x31 + x66 + x67 - 2 d21 >= 0
d21 - x31 >= 0
d21 - x66 >= 0
d21 - x67 >= 0
\BRANCH
x33 + x68 + x69 - 2 d22 >= 0
d22 - x33 >= 0
d22 - x68 >= 0
d22 - x69 >= 0
\BRANCH
x35 + x70 + x71 - 2 d23 >= 0
d23 - x35 >= 0
d23 - x70 >= 0
d23 - x71 >= 0
\Clefia S0
\M_0
x64 + x66 + x68 + x70 + x72 + x73 + x74 + x75 - 5 d24 >= 0
d24 - x64 >= 0
d24 - x66 >= 0
d24 - x68 >= 0
d24 - x70 >= 0
d24 - x72 >= 0
d24 - x73 >= 0
d24 - x74 >= 0
d24 - x75 >= 0
\XOR
x53 - x72 = 0
\XOR
x55 - x73 = 0
\XOR
x57 - x74 = 0
\XOR
x59 - x75 = 0
\BRANCH
x17 + x76 + x77 - 2 d25 >= 0
d25 - x17 >= 0
d25 - x76 >= 0
d25 - x77 >= 0
\BRANCH
x19 + x78 + x79 - 2 d26 >= 0
d26 - x19 >= 0
d26 - x78 >= 0
d26 - x79 >= 0
\BRANCH
x21 + x80 + x81 - 2 d27 >= 0
d27 - x21 >= 0
d27 - x80 >= 0
d27 - x81 >= 0
\BRANCH
x23 + x82 + x83 - 2 d28 >= 0
d28 - x23 >= 0
d28 - x82 >= 0
d28 - x83 >= 0
\Clefia S1
\M_1
x76 + x78 + x80 + x82 + x84 + x85 + x86 + x87 - 5 d29 >= 0
d29 - x76 >= 0
d29 - x78 >= 0
d29 - x80 >= 0
d29 - x82 >= 0
d29 - x84 >= 0
d29 - x85 >= 0
d29 - x86 >= 0
d29 - x87 >= 0
\XOR
x41 - x84 = 0
\XOR
x43 - x85 = 0
\XOR
x45 - x86 = 0
\XOR
x47 - x87 = 0
\Identity
\Identity
\Identity
\Identity
\Identity
\Identity
\Identity
\Identity
\Identity
\Identity
\Identity
\Identity
\Identity
\Identity
\Identity
\Identity
\Identity
\Identity
\Identity
\Identity
\Identity
\Identity
\Identity
\Identity
\Identity
\Identity
\Identity
\Identity
\Identity
\Identity
\Identity
\Identity
x0 + x1 + x2 + x3 + x4 + x5 + x6 + x7 + x8 + x9 + x10 + x11 + x12 + x13 + x14 + x15 >= 1

Binary
d0
d1
d2
d3
d4
d5
d6
d7
d8
d9
d10
d11
d12
d13
d14
d15
d16
d17
d18
d19
d20
d21
d22
d23
d24
d25
d26
d27
d28
d29
x0
x1
x2
x3
x4
x5
x6
x7
x8
x9
x10
x11
x12
x13
x14
x15
x16
x17
x18
x19
x20
x21
x22
x23
x24
x25
x26
x27
x28
x29
x30
x31
x32
x33
x34
x35
x36
x37
x38
x39
x40
x41
x42
x43
x44
x45
x46
x47
x48
x49
x50
x51
x52
x53
x54
x55
x56
x57
x58
x59
x60
x61
x62
x63
x64
x65
x66
x67
x68
x69
x70
x71
x72
x73
x74
x75
x76
x77
x78
x79
x80
x81
x82
x83
x84
x85
x86
x87
End